data/solutions/recovery/degenerate/moderate/flexible/degenerate_moderate_instance1/50.sol
Elapsed time: 0.1
Upper bound: 237310.0
Planning weighted value: 1761084.0
C[0]=237310.0
C[1]=237213.0
C[2]=236613.0
y[0]=1
y[1]=0
y[2]=2
y[3]=1
y[4]=2
y[5]=1
y[6]=1
y[7]=2
y[8]=2
y[9]=1
y[10]=0
y[11]=0
y[12]=0
y[13]=2
y[14]=0
y[15]=2
y[16]=2
y[17]=1
y[18]=2
y[19]=1
y[20]=0
y[21]=0
