data/solutions/recovery/degenerate/moderate/flexible/degenerate_moderate_instance1/50.log

Log started (V12.6.3.0) Sat Apr 21 11:02:02 2018

New value for default parallel thread count: 1

Problem '/tmp/tmpyf8Q8L.pyomo.lp' read.
Read time = 0.00 sec. (0.02 ticks)

Problem name         : /tmp/tmpyf8Q8L.pyomo.lp
Objective sense      : Minimize
Variables            :      71  [Nneg: 1,  Binary: 66,  General Integer: 4]
Objective nonzeros   :       1
Linear constraints   :      51  [Less: 25,  Equal: 26]
  Nonzeros           :    1019
  RHS nonzeros       :      45

Variables            : Min LB: 0.000000         Max UB: 1.000000       
Objective nonzeros   : Min   : 1.000000         Max   : 1.000000       
Linear constraints   :
  Nonzeros           : Min   : 1.000000         Max   : 93707.00       
  RHS nonzeros       : Min   : 1.000000         Max   : 3.000000       
Tried aggregator 2 times.
MIP Presolve eliminated 22 rows and 3 columns.
Aggregator did 4 substitutions.
Reduced MIP has 25 rows, 64 columns, and 167 nonzeros.
Reduced MIP has 63 binaries, 1 generals, 0 SOSs, and 0 indicators.
Presolve time = 0.00 sec. (0.42 ticks)
Found incumbent of value 711136.000000 after 0.00 sec. (0.63 ticks)
Probing time = 0.00 sec. (0.04 ticks)
Cover probing fixed 0 vars, tightened 6 bounds.
Tried aggregator 1 time.
Reduced MIP has 25 rows, 64 columns, and 167 nonzeros.
Reduced MIP has 63 binaries, 1 generals, 0 SOSs, and 0 indicators.
Presolve time = 0.00 sec. (0.10 ticks)
Probing time = 0.00 sec. (0.03 ticks)
Clique table members: 21.
MIP emphasis: balance optimality and feasibility.
MIP search method: dynamic search.
Parallel mode: none, using 1 thread.
Root relaxation solution time = 0.00 sec. (0.05 ticks)

        Nodes                                         Cuts/
   Node  Left     Objective  IInf  Best Integer    Best Bound    ItCnt     Gap

*     0+    0                       711136.0000    93707.0000            86.82%
      0     0   237045.3333     5   711136.0000   237045.3333        4   66.67%
*     0+    0                       259720.0000   237045.3333             8.73%
      0     0   237046.0000     6   259720.0000      Fract: 2       13    8.73%
*     0+    0                       239798.0000   237046.0000             1.15%
      0     0   237046.0000    10   239798.0000       Cuts: 6       18    1.15%
      0     2   237046.0000     3   239798.0000   237046.0000       18    1.15%
Elapsed time = 0.01 sec. (2.69 ticks, tree = 0.01 MB, solutions = 2)
*    20+   18                       237943.0000   237046.0000             0.38%
*    29    24      integral     0   237573.0000   237046.0000       95    0.22%
*   573    72      integral     0   237310.0000   237046.0000     2207    0.11%

Cover cuts applied:  46
Mixed integer rounding cuts applied:  1

Root node processing (before b&c):
  Real time             =    0.01 sec. (2.70 ticks)
Sequential b&c:
  Real time             =    0.06 sec. (46.23 ticks)
                          ------------
Total (root+branch&cut) =    0.07 sec. (48.93 ticks)

Solution pool: 5 solutions saved.

MIP - Integer optimal solution:  Objective =  2.3731000000e+05
Solution time =    0.07 sec.  Iterations = 4517  Nodes = 1026
Deterministic time = 48.93 ticks  (752.51 ticks/sec)


Incumbent solution written to file '/tmp/tmpy6ywxc.cplex.sol'.
